p tw 306 625
1 22
1 120
1 121
1 159
1 160
1 174
1 222
1 223
2 76
2 77
2 171
2 172
2 184
2 185
2 234
2 235
3 185
3 186
3 240
3 241
4 77
4 186
4 241
5 101
5 102
5 194
5 195
5 278
5 279
6 86
6 87
6 168
6 169
6 231
6 232
7 92
7 261
7 262
8 91
8 92
8 260
8 261
9 109
9 110
9 173
9 210
9 211
10 153
10 154
10 296
10 297
11 111
11 112
11 158
11 159
11 213
11 214
11 221
11 222
12 75
12 76
12 183
12 184
12 239
12 240
13 121
13 122
13 157
13 158
13 220
13 221
14 126
14 127
14 200
14 201
14 252
14 253
15 127
15 128
15 298
15 299
16 19
16 116
16 117
16 172
16 235
17 129
17 130
17 204
17 205
18 144
18 145
18 273
18 274
19 131
19 132
19 172
19 235
19 301
19 302
20 138
20 139
20 167
20 168
20 182
20 183
20 230
20 231
21 104
21 105
21 203
21 204
21 284
21 285
22 71
22 141
22 142
22 174
23 115
23 166
23 167
23 228
23 229
23 242
23 243
24 90
24 91
24 160
24 161
24 214
24 215
24 223
24 224
24 259
24 260
25 114
25 136
25 137
25 263
25 264
26 135
26 262
26 263
26 306
27 134
27 215
27 216
27 258
27 259
28 140
28 141
28 269
28 270
29 31
29 161
29 162
29 175
29 176
29 224
29 225
29 236
29 237
30 79
30 80
30 170
30 171
30 191
30 192
30 233
30 234
31 177
31 178
31 238
31 239
32 95
32 96
32 163
32 164
32 226
32 227
33 78
33 188
33 189
33 242
34 117
34 118
34 291
34 292
35 97
35 98
35 266
35 267
36 147
36 148
36 189
36 190
36 274
36 275
37 80
37 81
37 246
37 247
38 98
38 99
38 180
38 181
39 96
39 97
39 179
39 180
39 265
39 266
40 130
40 131
40 206
40 207
40 255
40 256
41 272
41 273
41 288
41 289
42 75
42 175
42 236
43 81
43 82
43 198
43 199
43 248
43 249
44 105
44 106
44 165
44 166
44 202
44 203
44 229
44 230
45 82
45 83
45 199
45 200
46 85
46 86
46 201
46 202
46 253
46 254
47 99
47 100
47 181
47 182
47 267
47 268
48 113
48 114
48 217
48 218
48 287
49 123
49 124
49 247
49 248
50 119
50 120
50 156
50 157
50 196
50 197
50 219
50 220
50 244
50 245
51 87
51 88
51 207
51 208
51 256
51 257
52 89
52 90
52 211
52 212
53 148
53 149
53 192
53 193
53 276
53 277
54 115
54 116
54 290
54 291
55 103
55 104
55 283
55 284
55 297
55 298
56 124
56 125
56 294
56 295
57 149
57 150
57 193
57 194
57 277
57 278
58 142
58 143
58 187
58 188
58 270
58 271
59 151
59 152
59 197
59 198
59 281
59 282
60 249
60 250
60 293
60 294
61 108
61 109
61 155
61 209
61 210
62 93
62 176
62 177
62 265
63 135
63 136
63 164
63 165
63 227
63 228
64 88
64 89
64 303
64 304
65 146
65 147
65 190
65 191
65 289
65 290
66 150
66 151
66 195
66 196
66 279
66 280
67 112
67 113
67 305
67 306
68 133
68 134
68 212
68 213
68 257
68 258
69 154
69 208
69 209
69 286
69 287
70 107
70 108
70 169
70 170
70 205
70 206
70 232
70 233
70 285
70 286
71 93
71 94
71 162
71 163
71 173
71 174
71 178
71 179
71 225
71 226
72 84
72 85
72 251
72 252
72 299
72 300
73 155
73 156
73 219
74 78
74 79
74 243
74 244
75 76
76 77
78 79
79 80
80 81
81 82
82 83
83 84
84 85
85 86
86 87
87 88
88 89
89 90
90 91
91 92
93 94
94 95
95 96
96 97
97 98
98 99
99 100
100 268
101 102
101 288
102 103
103 104
104 105
105 106
106 107
107 108
108 109
109 110
110 111
111 112
112 113
113 114
115 116
116 117
117 118
118 119
119 120
120 121
121 122
122 123
123 124
124 125
125 126
126 127
127 128
128 129
129 130
130 131
131 132
132 133
133 134
135 136
136 137
137 138
138 139
139 140
140 141
141 142
142 143
143 144
144 145
145 146
146 147
147 148
148 149
149 150
150 151
151 152
152 153
153 154
155 156
156 157
157 158
158 159
159 160
160 161
161 162
162 163
163 164
164 165
165 166
166 167
167 168
168 169
169 170
170 171
171 172
173 174
175 176
176 177
177 178
178 179
179 180
180 181
181 182
182 183
183 184
184 185
185 186
187 188
187 269
188 189
189 190
190 191
191 192
192 193
193 194
194 195
195 196
196 197
197 198
198 199
199 200
200 201
201 202
202 203
203 204
204 205
205 206
206 207
207 208
208 209
209 210
210 211
211 212
212 213
213 214
214 215
215 216
216 217
217 218
218 264
219 220
220 221
221 222
222 223
223 224
224 225
225 226
226 227
227 228
228 229
229 230
230 231
231 232
232 233
233 234
234 235
236 237
237 238
238 239
239 240
240 241
242 243
243 244
244 245
245 246
246 247
247 248
248 249
249 250
250 251
251 252
252 253
253 254
254 255
255 256
256 257
257 258
258 259
259 260
260 261
261 262
262 263
263 264
265 266
266 267
267 268
269 270
270 271
271 272
272 273
273 274
274 275
275 276
276 277
277 278
278 279
279 280
280 281
281 282
282 283
283 284
284 285
285 286
286 287
288 289
289 290
290 291
291 292
292 293
293 294
294 295
295 296
296 297
297 298
298 299
299 300
300 301
301 302
302 303
303 304
304 305
305 306
